! B97-3c opt defgrid2 tightSCF noautostart miniprint nopop
%scf ConvForced true end 
* xyzfile 0 1 Base.xyz

