! B97-3c opt defgrid2 tightSCF noautostart miniprint nopop 
%scf ConvForced true end
* xyzfile 1 1 Conjugate_acid.xyz

